NAME : u159.42080.tour
COMMENT : Length = 42080
COMMENT : Found by LKH [Keld Helsgaun] Fri Nov 14 22:46:19 2014
TYPE : TOUR
DIMENSION : 159
TOUR_SECTION
1
3
2
4
5
6
153
152
7
8
9
10
11
12
13
14
15
16
17
18
19
20
21
22
23
24
25
26
27
28
29
30
31
32
33
34
35
37
36
38
39
40
41
42
43
44
45
46
47
48
49
50
51
52
53
54
55
56
57
58
59
60
61
62
63
64
65
66
67
68
69
70
71
72
73
74
75
76
77
78
79
80
81
82
83
84
85
86
97
98
99
100
101
102
103
104
105
106
107
95
96
87
88
94
89
90
91
92
93
108
109
110
111
112
113
114
115
116
117
118
119
120
121
122
123
130
124
129
125
126
127
128
131
132
134
133
135
136
137
138
140
139
141
142
143
144
145
146
147
149
148
150
151
154
155
156
157
158
159
-1
EOF
